// Dezyne --- Dezyne command line tools
//
// Copyright © 2015 Jan Nieuwenhuizen <janneke@gnu.org>
// Copyright © 2015 Paul Hoogendijk <paul.hoogendijk@verum.com>
//
// This file is part of Dezyne.
//
// Dezyne is free software: you can redistribute it and/or modify it
// under the terms of the GNU Affero General Public License as
// published by the Free Software Foundation, either version 3 of the
// License, or (at your option) any later version.
//
// Dezyne is distributed in the hope that it will be useful, but
// WITHOUT ANY WARRANTY; without even the implied warranty of
// MERCHANTABILITY or FITNESS FOR A PARTICULAR PURPOSE.  See the GNU
// Affero General Public License for more details.
//
// You should have received a copy of the GNU Affero General Public
// License along with Dezyne.  If not, see <http://www.gnu.org/licenses/>.
//
// Commentary:
//
// Code:

// /////////////////////////////////////////////////////////////////////////////
// 
// File generated by   : Verum ASD:Suite Release 0, version 0.0.0.0
// Language            : asd
// 
// Model name          : OutParam
// Model file          : OutParam.dm
// Model last updated  : 2015-Oct-30 14:50:57
// Model fingerprint   : A61544AD
// 
// Version             : 1.0
// Project             : 
// Author              : 
// Component type      : Multiple
// Execution model     : Multi-threaded
// Broadcasting        : No
// 
// /////////////////////////////////////////////////////////////////////////////
// 
// Basis for testing parameter passing.
// 
// /////////////////////////////////////////////////////////////////////////////



import IOutParam.dzn;
import OutParamComp.dzn;
import MultiStepOutParam.dzn;

component OutParam
{
  provides IOutParam outParam;

  system
  {
    OutParamComp outParamComp;
    MultiStepOutParam datasource;

    outParam <=> outParamComp.outParam;
    outParamComp.datasource <=> datasource.multiStepOutParam;
  }
}
